GLPSOL: GLPK LP/MIP Solver, v4.55
Parameter(s) specified in the command line:
 -m tmp.mod
Reading model section from tmp.mod...
Reading data section from tmp.mod...
6289 lines were read
Generating obj...
Generating kirhoff...
Generating init_charge...
Generating batt_size...
Model has been successfully generated
GLPK Simplex Optimizer, v4.55
6171 rows, 11396 columns, 24724 non-zeros
Preprocessing...
5299 rows, 11176 columns, 24202 non-zeros
Scaling...
 A: min|aij| =  1.000e+00  max|aij| =  1.000e+00  ratio =  1.000e+00
Problem data seem to be well scaled
Constructing initial basis...
Size of triangular part is 4755
      0: obj =   0.000000000e+00  infeas =  3.291e+03 (544)
    500: obj =   4.000000000e+00  infeas =  2.427e+03 (440)
   1000: obj =   3.300000000e+01  infeas =  1.162e+03 (297)
   1500: obj =   2.120000000e+02  infeas =  6.850e+02 (198)
   2000: obj =   4.500000000e+02  infeas =  7.050e+01 (166)
*  2228: obj =   4.590000000e+02  infeas =  0.000e+00 (159)
*  2500: obj =   3.370000000e+02  infeas =  0.000e+00 (158)
*  3000: obj =   1.310000000e+02  infeas =  0.000e+00 (124)
*  3079: obj =   1.200000000e+02  infeas =  0.000e+00 (124)
OPTIMAL LP SOLUTION FOUND
Time used:   1.2 secs
Memory used: 21.6 Mb (22633837 bytes)
#OUTPUT:
120
-39 0 -24 0 -6 0 0 0 0 0 -30 -4 0 -1 0 1 -57 0 -3 0 -2 0 0 0 2 0 0 0 0 0 0 0 0 0 0 0 0 0 0 0 0 0 0 0 0 -23 0 0 0 0 0 0 -1 0 0 -6 10 0 0 0 0 0 0 0 0 0 -1 0 0 0 0 -1 0 0 0 0 0 -4 0 0 0 1 0 0 0 0 0 0 0 -1 0 0 0 0 0 0 0 0 0 0 33 0 0 0 0 -2 0 0 0 0 0 0 0 0 0 0 0 0 0 0 0 0 0 0 0 0 -4 0 0 0 0 0 -6 0 0 0 0 0 0 0 0 18 0 0 0 0 0 0 0 0 0 0 0 0 0 0 0 0 0 -6 0 0 0 0 0 -9 -18 26 0 0 6 0 0 0 0 -6 -4 0 0 0 0 0 0 0 -1 -13 0 0 0 0 0 0 0 0 0 0 0 0 0 0 6 0 0 0 0 0 0 31 0 0 0 0 0 0 0 0 -6 0 0 0 1 0 0 0 0 0 0 0 0 0 0 0 8 0 0 0 0 0 0 0 0 0 0 0 2 0 0 0 0 0 0 0 0 0 0 0 0 0 0 0 0 0 0 0 0 0 0 0 0 0 0 0 0 0 0 0 0 0 0 0 0 0 0 0 0 0 0 0 0 -1 0 0 0 0 0 0 0 0 0 0 0 0 0 0 0 0 0 0 0 0 0 3 0 0 -18 0 0 0 0 0 0 0 0 -8 0 0 0 0 0 0 3 0 0 0 0 0 0 0 0 0 0 0 18 0 0 0 0 0 0 0 0 0 0 0 0 0 0 0 0 0 0 0 0 2 -26 6 0 0 0 0 0 0 0 0 0 0 0 0 0 0 0 0 0 0 0 0 0 -39 0 0 0 0 0 0 0 0 0 26 0 0 -9 0 0 0 0 0 0 0 0 0 0 0 0 0 0 0 0 0 0 0 0 0 0 0 0 0 0 0 0 0 0 0 0 0 0 0 0 0 0 0 0 0 0 0 0 0 0 0 0 0 0 0 0 0 0 0 0 0 0 0 0 0 0 0 0 0 0 0 -26 0 0 0 0 0 0 0 0 0 0 0 0 0 0 0 0 0 0 0 0 0 -33 0 0 0 0 -18 0 0 0 0 0 0 -1 1 0 0 -31 0 0 6 0 0 0 0 -8 0 0 -2 0 0 0 0 0 0 0 0 0 0 1 0 0 0 0 0 0 0 0 -3 0 0 8 0 0 -3 0 0 0 -18 0 0 0 0 0 -2 -6 0 0 0 0 0 0 0 0 0 48 0 0 0 0 -26 9 0 0 0 0 0 0 0 0 0 0 0 0 0 0 0 0 0 0 0 0 0 0 0 0 0 26 0 0 0 0 0 0 0 0 0 0 0 0 0 0 0 0 0 0 0 0 0 0 0 0 
-65 -2 -27 -5 -6 -5 -25 -5 -2 8 -64 -47 0 3 -9 8 -25 0 0 0 3 -26 0 0 0 -22 0 -2 0 0 4 0 -11 3 0 0 0 0 0 0 0 0 0 7 0 -25 0 0 0 1 0 0 0 0 -9 -11 -10 3 0 0 -10 0 -3 0 7 0 -47 -2 4 0 0 -12 0 0 17 3 0 0 0 -2 0 8 -14 0 0 0 0 0 0 -56 0 0 0 -4 0 -1 -4 0 0 0 19 0 0 0 0 2 0 0 0 0 2 0 0 0 0 0 0 0 4 0 -2 0 0 0 0 0 0 0 0 0 0 -10 -2 0 0 0 0 0 0 0 0 4 0 0 0 0 0 0 3 0 0 0 0 0 0 -3 0 -3 0 -11 0 0 1 0 -3 0 0 21 0 0 -56 -2 0 0 0 0 0 0 0 0 0 0 0 0 -12 13 0 1 0 0 0 0 0 -4 -2 0 0 0 0 0 0 0 0 0 0 -3 0 12 -1 0 0 0 0 0 -61 0 0 0 0 3 47 0 0 4 -2 0 7 0 8 0 0 0 3 0 0 0 0 0 0 0 0 0 0 -8 0 0 0 0 0 0 0 0 0 0 0 0 2 0 0 0 0 0 0 0 0 -4 0 -4 0 0 0 0 0 0 0 0 0 0 0 0 0 0 0 0 0 0 0 0 0 -47 -2 0 0 0 0 0 0 0 0 0 0 0 0 0 0 0 0 0 0 0 1 25 0 0 0 0 0 3 0 0 0 0 0 -8 0 0 -3 0 0 0 0 0 0 0 0 0 0 0 0 0 0 0 0 0 0 -2 0 0 0 0 0 0 0 0 0 0 0 0 0 0 0 0 0 0 -31 11 0 0 0 0 0 0 0 0 0 0 0 0 0 -4 0 2 0 3 0 0 0 -9 0 0 -4 0 0 0 0 0 0 31 0 0 0 0 0 0 -2 0 0 0 0 0 0 0 2 0 0 0 0 0 0 0 0 0 0 0 0 0 0 0 0 0 0 0 0 0 0 0 0 0 0 0 0 0 0 0 0 0 0 0 0 0 0 0 0 0 0 0 0 0 0 -7 0 0 -3 0 0 0 0 -4 -17 0 0 0 0 0 0 -2 0 0 0 0 0 0 0 0 0 0 0 0 0 0 -19 0 1 0 0 -4 -11 17 -14 -2 0 0 0 12 0 0 -12 1 0 0 -4 0 -8 0 -3 0 8 0 0 0 0 0 0 4 0 0 0 0 47 2 0 0 0 0 0 0 -22 -3 0 0 8 0 0 0 0 0 -2 0 0 0 0 0 0 0 -11 0 0 0 0 0 0 -2 -3 0 9 0 3 1 0 -31 0 0 4 0 0 0 0 -2 0 0 0 0 0 0 0 0 0 0 0 0 0 0 7 3 0 3 17 0 2 0 0 0 0 0 0 0 0 0 0 0 0 0 0 0 0 0 0 0 0 0 0 
-50 0 -49 0 0 0 0 0 0 0 -64 -64 0 -1 0 0 -5 0 -8 0 0 0 0 0 0 0 0 0 0 0 0 0 -2 0 0 0 0 0 0 0 -1 0 0 1 -5 -48 0 0 0 0 0 0 0 0 0 0 0 -1 0 0 0 0 0 0 0 -2 -56 0 0 0 0 -10 0 1 0 0 0 0 0 0 0 0 0 0 0 0 0 0 0 10 0 0 0 0 0 0 0 0 0 0 0 0 0 0 0 0 0 0 0 0 4 0 0 0 0 0 0 0 0 -3 0 0 0 0 0 0 0 0 0 0 0 0 -5 0 0 0 0 0 0 -2 0 0 0 0 0 0 0 0 -2 0 0 0 0 0 0 0 -5 0 0 0 0 0 0 0 0 0 0 0 0 0 0 1 0 0 0 -1 0 0 0 0 0 0 0 0 -10 -1 0 0 0 0 0 0 0 0 0 0 0 0 0 0 0 0 0 0 0 5 0 0 0 0 -4 0 0 0 0 0 0 0 0 0 -15 0 0 0 0 0 0 0 0 0 0 0 0 0 0 0 0 0 0 0 0 0 0 0 0 0 0 -7 0 0 0 0 0 0 0 -1 4 0 0 0 0 0 0 -5 0 0 0 -4 0 0 0 0 0 0 0 0 0 0 0 0 0 0 0 0 0 0 0 0 0 -56 0 -3 0 0 0 0 0 0 0 0 0 0 0 -7 0 0 0 0 0 1 0 10 0 0 0 0 0 0 0 0 0 0 0 0 0 0 0 0 0 0 8 0 0 0 0 0 0 0 0 0 0 0 0 0 0 0 0 0 0 0 0 0 0 0 0 0 0 0 0 0 0 0 0 0 0 0 0 0 0 0 0 0 -1 0 0 0 0 0 0 0 0 0 0 0 0 0 0 0 0 5 0 0 0 0 0 0 0 0 0 0 0 0 0 0 0 0 0 0 0 0 0 0 0 0 1 0 0 0 0 0 0 0 0 0 0 -1 0 0 0 0 0 0 -48 0 0 0 0 0 0 0 0 0 0 0 -2 0 0 0 0 0 0 0 0 0 0 0 0 0 0 0 0 0 0 0 0 0 0 0 0 0 0 0 0 0 0 -4 0 0 0 0 0 0 0 0 0 0 0 0 0 0 0 0 0 0 0 0 2 0 0 0 0 1 2 10 0 0 0 0 0 0 0 0 0 0 0 0 0 0 0 0 0 0 1 4 -7 0 0 0 -15 0 0 3 0 0 -4 0 -7 -3 0 0 0 0 0 -8 0 0 0 0 0 0 0 0 0 0 0 0 1 0 0 0 0 0 0 0 0 -5 0 0 0 0 0 0 0 0 0 0 0 0 0 1 0 0 0 0 0 0 0 0 2 0 0 0 0 0 0 0 0 0 4 0 0 0 0 0 0 0 0 0 0 0 0 0 0 0 0 0 0 0 0 0 0 
-41 0 -9 0 -5 0 0 -3 0 0 -27 -7 0 -7 0 0 -12 0 0 -6 -5 0 0 0 6 0 0 0 0 0 0 0 0 0 0 0 0 0 0 0 0 0 0 0 0 -2 0 0 0 0 0 -3 0 0 0 0 0 0 0 0 0 0 -3 0 0 0 0 0 0 0 0 0 0 0 0 -7 0 0 0 0 0 0 -6 0 0 0 0 0 9 0 0 0 0 -4 0 0 0 0 0 0 2 0 0 0 0 2 0 0 0 0 0 0 0 0 0 0 0 0 0 0 0 0 0 0 0 0 0 0 0 0 0 0 0 0 0 0 0 0 0 0 0 0 0 0 0 0 0 0 0 0 0 0 0 0 0 0 0 0 0 0 0 0 0 0 -3 -9 0 0 0 0 11 -3 0 0 0 0 0 0 0 0 0 0 0 0 0 -13 0 0 0 0 0 0 0 -4 0 0 0 0 0 0 0 0 0 0 0 0 0 2 0 0 0 0 0 11 0 0 0 0 0 0 0 0 0 0 0 0 0 0 0 0 0 0 0 0 0 0 0 0 0 0 0 0 0 0 0 0 0 0 0 0 0 0 0 0 0 -9 0 0 0 0 0 0 0 0 0 0 0 0 0 0 0 0 0 0 0 0 0 0 7 0 0 0 0 0 0 0 0 0 0 0 0 0 0 0 0 0 0 0 0 0 0 0 0 0 0 0 0 0 0 0 0 0 0 0 0 0 0 0 0 0 0 0 0 -3 0 0 0 0 0 0 0 0 0 0 0 0 0 0 0 0 0 0 0 0 0 -3 0 0 0 0 0 0 0 0 0 0 0 0 0 0 0 0 0 0 0 11 0 0 0 0 0 0 0 0 0 -7 0 0 0 0 0 0 0 0 0 0 0 0 0 0 0 0 0 0 0 0 0 -4 0 0 -9 0 0 0 0 0 0 0 0 0 0 0 3 0 0 0 0 0 0 0 0 0 0 0 0 0 0 0 0 0 0 0 0 0 0 0 0 0 0 -4 0 0 0 0 0 0 0 0 0 0 0 0 0 0 0 0 0 0 0 0 0 0 0 0 0 0 0 0 -20 0 0 0 0 0 0 0 0 0 0 0 0 0 0 0 0 0 -6 0 0 0 -2 0 0 0 0 -10 0 0 0 0 0 0 0 0 0 0 -2 0 -15 0 0 0 0 0 0 0 0 0 0 0 0 0 9 0 0 0 0 0 0 0 0 0 0 0 0 0 0 0 0 0 3 -10 0 0 0 0 0 0 0 0 0 0 0 0 -11 0 0 0 7 0 0 0 0 0 9 0 0 0 0 4 9 0 3 0 0 0 0 -3 0 0 0 0 0 0 4 0 0 0 0 0 0 0 0 0 0 0 -3 0 0 0 0 0 0 0 0 0 0 0 0 0 0 0 0 0 0 0 0 0 0 0 0 
-65 0 -30 0 2 0 0 -29 0 0 -23 -9 0 -30 0 0 -52 0 -9 -7 2 0 0 0 2 0 0 0 0 0 0 0 0 0 0 0 0 0 0 0 0 0 0 4 0 0 0 0 0 0 0 -4 0 0 0 0 -45 0 0 0 0 0 0 3 0 0 0 0 0 0 0 0 0 0 0 -9 0 0 0 0 0 0 -14 0 0 0 0 0 -8 0 0 0 0 -4 0 -5 0 0 0 -22 0 0 0 0 0 2 0 0 0 3 3 0 0 0 0 0 0 0 0 0 0 0 0 0 0 0 0 0 0 0 0 0 -3 0 0 0 0 0 0 0 0 18 0 0 0 0 0 0 -3 0 0 0 0 0 2 3 0 0 0 0 0 0 0 0 0 0 -18 14 0 0 0 1 0 0 0 0 0 0 0 0 0 0 0 0 0 13 0 0 0 0 0 0 0 -4 0 0 0 0 0 0 0 0 0 0 0 9 0 0 0 0 0 0 0 0 0 0 0 0 0 0 0 0 0 0 0 0 4 0 0 0 0 0 0 0 0 0 0 0 0 0 0 0 -2 0 0 0 0 0 0 0 0 0 0 0 0 7 3 0 0 0 0 0 0 0 0 0 0 0 0 0 0 0 0 0 0 0 0 0 0 0 0 0 0 0 0 0 0 0 0 0 0 0 0 0 0 0 0 0 0 -2 0 0 0 0 0 0 0 0 0 0 0 4 0 -6 -18 0 0 6 0 5 0 0 0 0 0 0 21 0 0 0 9 0 0 0 0 0 0 0 0 0 0 0 -41 0 0 0 0 0 0 0 0 0 0 0 0 0 0 0 0 0 0 0 0 -5 -14 0 0 0 0 0 0 0 -1 0 0 0 0 0 0 0 0 0 0 0 0 0 0 0 0 0 0 0 0 0 0 0 0 0 0 0 0 0 0 0 0 0 0 0 0 0 0 0 0 0 0 0 0 0 0 0 0 0 -39 0 0 0 0 0 0 0 0 0 0 0 0 0 0 0 0 -14 0 0 0 0 0 0 0 0 0 0 0 0 0 0 0 0 0 0 0 -4 -6 0 0 0 0 0 0 0 -14 0 0 0 0 0 0 -3 0 0 0 0 0 0 0 0 0 0 -7 0 0 0 0 0 0 -29 0 -49 3 0 -3 0 0 0 2 0 0 0 0 0 -3 0 0 0 0 0 0 0 0 0 0 0 0 0 -7 0 0 0 0 0 0 0 0 0 0 2 0 0 -4 0 -5 0 0 -31 0 -9 0 0 0 41 0 0 0 0 0 5 0 0 1 0 0 0 0 0 0 0 0 0 0 0 0 0 0 0 0 0 0 0 0 0 0 0 0 0 0 0 14 0 0 0 0 0 0 0 4 6 0 0 14 0 3 0 0 0 0 0 0 0 0 0 0 0 0 0 0 0 0 0 0 0 0 0 0 
-65 0 -64 0 0 0 -1 0 0 -5 -9 -1 -1 -64 0 -8 -1 0 0 -1 0 0 3 0 1 0 0 0 0 0 0 0 0 0 0 0 0 0 0 0 0 -1 0 0 0 0 0 0 0 0 0 0 0 0 1 0 -56 0 0 0 4 0 0 0 0 0 0 0 0 0 0 -46 0 0 0 0 0 -1 0 0 0 -8 0 0 0 0 0 0 0 1 0 0 0 0 0 0 1 0 0 0 0 0 0 0 0 0 0 -1 0 0 0 0 0 0 0 0 0 0 0 1 0 0 0 0 0 0 0 0 0 0 0 4 0 0 0 0 0 0 4 0 0 0 0 1 0 0 0 0 0 0 0 0 0 0 0 0 0 0 0 0 0 0 0 0 3 0 0 4 0 0 0 0 0 0 0 0 0 0 0 0 0 0 0 0 -46 -13 0 0 0 0 0 0 0 0 0 0 0 0 0 0 0 0 0 0 0 0 0 0 0 0 0 0 0 0 0 0 0 0 0 0 0 0 0 0 0 0 0 0 0 0 0 0 0 0 0 0 0 0 0 0 0 0 0 0 0 0 0 3 0 0 0 0 0 0 0 0 0 0 0 0 0 0 0 0 0 0 0 0 0 0 0 0 0 0 -3 0 0 0 1 0 0 1 0 0 0 0 0 0 0 0 0 1 0 0 0 0 0 0 0 0 0 0 0 0 0 0 0 0 0 0 0 -3 0 0 0 0 0 0 0 0 0 0 0 3 0 0 0 0 0 0 0 0 0 0 0 0 0 0 0 0 0 0 -56 0 0 0 0 0 0 0 0 0 0 0 0 0 0 0 0 0 0 0 0 0 0 0 0 3 0 0 0 0 0 0 0 -1 0 0 0 0 0 0 0 0 0 0 0 0 0 0 0 0 0 0 0 4 0 0 0 0 0 0 0 3 0 0 0 0 0 -3 0 -59 0 0 0 0 0 0 0 0 0 0 0 0 0 0 0 0 0 0 0 0 0 0 0 0 0 0 0 0 0 0 0 0 0 0 0 0 0 0 0 0 0 0 0 0 0 0 0 0 0 0 0 0 0 0 0 0 -8 0 0 0 0 0 0 0 0 0 0 0 0 0 0 0 0 0 -1 1 0 1 -1 0 0 0 0 0 0 0 0 0 0 0 0 -13 -1 0 0 0 0 0 0 0 0 0 0 0 0 0 0 0 0 0 0 0 3 -1 0 0 0 0 -1 0 0 0 0 0 0 0 0 0 -3 0 0 0 0 4 0 0 0 0 0 0 0 0 0 0 0 0 1 0 0 0 0 0 0 0 0 0 0 0 0 -3 -4 4 0 0 3 0 0 0 0 0 0 0 0 0 0 0 0 0 0 0 0 0 0 0 8 0 0 0 0 0 0 0 0 0 0 0 0 0 0 0 0 0 0 0 0 0 0 0 0 
-65 2 -31 -2 6 -2 -26 -5 2 2 -56 -35 0 -35 0 7 -43 -2 -9 -6 6 0 -3 0 6 27 0 0 0 0 -4 0 15 3 -2 0 0 0 0 0 0 0 0 0 0 6 0 -2 0 -4 0 -6 0 0 0 0 -32 1 0 0 0 0 0 3 0 0 -19 0 0 0 0 -22 0 0 0 0 0 0 0 0 0 7 0 0 0 0 0 9 0 -13 0 0 0 4 0 -8 -5 0 0 0 33 0 0 0 0 -2 -2 0 0 3 4 0 0 0 0 0 0 0 0 -3 -1 0 0 0 0 0 0 9 0 0 0 0 -10 0 -4 0 0 0 4 0 0 0 0 0 0 0 0 0 0 0 0 0 0 0 0 0 0 -3 0 0 0 0 0 0 0 -9 0 14 0 0 0 1 0 0 0 -6 0 0 0 0 0 0 0 0 -22 -13 0 -7 0 0 0 0 0 4 0 0 0 0 0 0 13 0 0 0 0 12 4 33 7 9 0 0 0 0 0 0 -6 0 0 3 15 0 0 0 0 0 0 0 0 0 0 0 0 0 0 0 0 0 0 -22 0 0 0 0 0 0 0 -7 0 0 0 0 0 0 0 -1 4 0 0 0 0 0 0 2 0 0 0 -2 0 8 0 0 0 0 0 0 0 0 7 0 0 0 0 0 0 0 0 0 0 -15 0 -3 2 0 0 0 0 7 0 0 0 0 0 -7 0 0 0 0 0 0 0 -13 0 0 -1 0 0 0 0 -7 0 0 0 0 0 0 0 0 0 0 9 0 0 0 0 0 0 -4 0 0 0 0 1 2 0 0 0 0 7 0 0 0 0 0 0 0 0 0 0 7 0 0 0 0 -14 0 0 0 0 0 4 0 -1 0 0 -7 0 0 0 -5 0 0 0 3 0 0 0 -52 0 -2 -3 0 0 0 0 0 0 0 0 0 -9 0 0 -3 7 0 0 0 0 0 0 0 0 0 0 0 0 0 0 0 0 0 0 0 0 0 0 0 0 0 0 0 0 0 0 0 0 0 0 -14 0 0 0 0 0 0 0 0 0 0 0 0 0 0 0 0 8 0 0 0 0 0 0 0 0 0 0 0 -21 0 0 0 0 0 0 -4 0 0 0 0 0 0 0 0 0 0 -6 0 0 0 -33 0 -4 -5 0 0 0 0 0 -1 0 0 0 22 0 0 -33 -7 0 6 0 0 0 0 8 0 0 0 0 0 0 0 1 2 -7 0 0 0 15 0 0 3 -7 0 0 0 13 3 7 0 0 0 0 -9 0 4 7 -1 -2 0 0 0 -7 0 0 -4 1 0 7 0 2 0 -3 0 61 2 3 0 0 0 9 3 -7 0 0 0 0 0 0 0 0 0 0 0 6 0 0 0 0 0 0 -8 0 0 0 0 21 0 4 0 0 0 0 0 0 0 0 0 0 0 0 0 0 0 0 0 0 0 0 0 0 
-58 0 -35 -5 -6 -5 -6 -2 0 2 -4 0 0 0 -5 4 -36 0 0 0 -6 0 0 0 0 -6 0 0 0 0 0 0 0 0 0 0 0 0 0 0 0 0 0 0 -1 -30 0 0 0 0 0 0 -2 0 0 -16 0 0 0 0 0 0 0 0 0 -6 0 0 0 0 0 -4 0 0 -5 0 0 0 0 0 0 4 -14 0 0 0 0 0 9 0 0 0 0 0 0 0 0 0 -7 0 5 0 0 0 0 2 0 0 0 0 0 0 0 0 0 0 0 0 0 0 0 0 0 0 0 0 -6 0 0 0 0 0 0 0 0 0 0 0 0 -6 0 0 0 0 0 0 0 0 3 0 0 4 0 0 -5 -9 -1 0 0 -16 0 0 0 0 0 0 0 0 0 0 -11 0 0 0 0 0 -6 0 0 0 0 0 0 0 -4 0 0 0 0 0 0 0 0 0 0 0 0 0 0 0 0 0 0 0 0 0 0 7 0 0 0 0 0 -27 0 0 0 0 0 0 0 0 0 0 0 0 0 0 0 0 0 0 0 0 0 0 0 0 0 0 0 0 6 0 -2 0 0 0 0 0 0 0 0 0 0 -9 0 0 0 0 0 0 0 0 0 0 0 0 0 0 0 0 0 0 0 0 0 0 0 0 0 0 0 0 0 0 0 0 0 0 0 0 0 0 0 0 0 0 0 5 0 0 0 0 0 0 0 0 0 0 0 0 0 -3 0 0 0 0 0 0 0 0 0 0 0 0 61 0 0 0 0 0 0 0 0 0 0 4 0 0 0 0 0 0 0 0 0 0 0 0 0 0 0 0 0 0 0 0 0 0 0 0 0 0 0 -11 0 0 0 0 0 0 0 0 0 0 0 0 0 0 0 0 0 0 0 0 0 0 0 0 0 0 0 0 0 4 0 0 0 0 0 0 0 0 0 0 0 0 0 0 0 0 0 0 0 0 0 0 0 0 0 0 0 0 0 0 0 0 0 0 0 0 0 0 0 0 0 0 0 0 0 0 0 0 -6 0 0 0 0 0 0 0 0 0 0 0 0 0 0 0 -3 0 10 0 0 0 0 0 -4 0 0 0 0 0 0 0 0 0 0 0 0 0 0 0 0 0 0 -2 0 -2 -5 0 0 -2 0 -31 -3 -5 14 0 0 0 -2 4 0 0 -7 0 -37 0 0 0 0 0 0 0 0 2 0 0 0 0 9 0 0 0 0 0 0 0 0 0 0 -5 0 0 0 0 0 0 0 -31 0 0 0 0 0 0 -1 0 0 0 0 0 11 0 0 0 0 0 0 0 0 0 0 0 0 0 0 0 0 0 -4 4 0 0 0 0 0 0 0 0 0 0 0 1 -1 0 6 0 0 0 0 0 -7 -3 4 0 0 0 0 0 0 0 0 0 0 0 0 0 0 0 0 0 0 0 0 0 0 0 0 
#OUTPUT END
Model has been successfully processed
